# Objective value = 7.5099999999999977e+02
x[0,0] 0
x[0,1] 0
x[0,2] 1
x[0,3] 0
x[0,4] 0
x[0,5] 0
x[0,6] 0
x[0,7] 0
x[0,8] 0
x[0,9] 0
x[0,10] 0
x[0,11] 0
x[0,12] 0
x[0,13] 0
x[0,14] 0
x[1,0] 0
x[1,1] 0
x[1,2] 0
x[1,3] 0
x[1,4] 0
x[1,5] 0
x[1,6] 0
x[1,7] 0
x[1,8] 0
x[1,9] 0
x[1,10] 1
x[1,11] 0
x[1,12] 0
x[1,13] 0
x[1,14] 0
x[2,0] 0
x[2,1] 1
x[2,2] 0
x[2,3] 0
x[2,4] 0
x[2,5] 0
x[2,6] 0
x[2,7] 0
x[2,8] 0
x[2,9] 0
x[2,10] 0
x[2,11] 0
x[2,12] 0
x[2,13] 0
x[2,14] 0
x[3,0] 0
x[3,1] 0
x[3,2] 0
x[3,3] 0
x[3,4] 0
x[3,5] 1
x[3,6] 0
x[3,7] 0
x[3,8] 0
x[3,9] 0
x[3,10] 0
x[3,11] 0
x[3,12] 0
x[3,13] 0
x[3,14] 0
x[4,0] 0
x[4,1] 0
x[4,2] 0
x[4,3] 0
x[4,4] 0
x[4,5] 0
x[4,6] 0
x[4,7] 0
x[4,8] 0
x[4,9] 1
x[4,10] 0
x[4,11] 0
x[4,12] 0
x[4,13] 0
x[4,14] 0
x[5,0] 0
x[5,1] 0
x[5,2] 0
x[5,3] 0
x[5,4] 0
x[5,5] 0
x[5,6] 1
x[5,7] 0
x[5,8] 0
x[5,9] 0
x[5,10] 0
x[5,11] 0
x[5,12] 0
x[5,13] 0
x[5,14] 0
x[6,0] 0
x[6,1] 0
x[6,2] 0
x[6,3] 0
x[6,4] 0
x[6,5] 0
x[6,6] 0
x[6,7] 0
x[6,8] 0
x[6,9] 0
x[6,10] 0
x[6,11] 1
x[6,12] 0
x[6,13] 0
x[6,14] 0
x[7,0] 0
x[7,1] 0
x[7,2] 0
x[7,3] 1
x[7,4] 0
x[7,5] 0
x[7,6] 0
x[7,7] 0
x[7,8] 0
x[7,9] 0
x[7,10] 0
x[7,11] 0
x[7,12] 0
x[7,13] 0
x[7,14] 0
x[8,0] 0
x[8,1] 0
x[8,2] 0
x[8,3] 0
x[8,4] 1
x[8,5] 0
x[8,6] 0
x[8,7] 0
x[8,8] 0
x[8,9] 0
x[8,10] 0
x[8,11] 0
x[8,12] 0
x[8,13] 0
x[8,14] 0
x[9,0] 0
x[9,1] 0
x[9,2] 0
x[9,3] 0
x[9,4] 0
x[9,5] 0
x[9,6] 0
x[9,7] 0
x[9,8] 0
x[9,9] 0
x[9,10] 0
x[9,11] 0
x[9,12] 0
x[9,13] 1
x[9,14] 0
x[10,0] 0
x[10,1] 0
x[10,2] 0
x[10,3] 0
x[10,4] 0
x[10,5] 0
x[10,6] 0
x[10,7] 1
x[10,8] 0
x[10,9] 0
x[10,10] 0
x[10,11] 0
x[10,12] 0
x[10,13] 0
x[10,14] 0
x[11,0] 0
x[11,1] 0
x[11,2] 0
x[11,3] 0
x[11,4] 0
x[11,5] 0
x[11,6] 0
x[11,7] 0
x[11,8] 0
x[11,9] 0
x[11,10] 0
x[11,11] 0
x[11,12] 1
x[11,13] 0
x[11,14] 0
x[12,0] 0
x[12,1] 0
x[12,2] 0
x[12,3] 0
x[12,4] 0
x[12,5] 0
x[12,6] 0
x[12,7] 0
x[12,8] 1
x[12,9] 0
x[12,10] 0
x[12,11] 0
x[12,12] 0
x[12,13] 0
x[12,14] 0
x[13,0] 0
x[13,1] 0
x[13,2] 0
x[13,3] 0
x[13,4] 0
x[13,5] 0
x[13,6] 0
x[13,7] 0
x[13,8] 0
x[13,9] 0
x[13,10] 0
x[13,11] 0
x[13,12] 0
x[13,13] 0
x[13,14] 1
x[14,0] 1
x[14,1] 0
x[14,2] 0
x[14,3] 0
x[14,4] 0
x[14,5] 0
x[14,6] 0
x[14,7] 0
x[14,8] 0
x[14,9] 0
x[14,10] 0
x[14,11] 0
x[14,12] 0
x[14,13] 0
x[14,14] 0
y[0,0,0] 1
y[1,0,1] 1
y[2,0,1] 0
y[3,0,1] 1
y[4,0,1] 0
y[5,0,1] 0
y[6,0,1] 0
y[7,0,1] 1
y[8,0,1] 1
y[2,0,2] 1
y[3,0,2] 0
y[4,0,2] 1
y[5,0,2] 1
y[6,0,2] 1
y[7,0,2] 0
y[8,0,2] 0
y[9,0,2] 1
y[10,0,2] 0
y[11,0,2] 0
y[12,0,2] 0
y[13,0,2] 0
y[10,0,3] 1
y[11,0,3] 1
y[12,0,3] 1
y[13,0,3] 1
y[14,0,3] 1
y[15,0,4] 1
y[0,1,0] 1
y[1,1,1] 1
y[2,1,1] 0
y[3,1,1] 1
y[4,1,1] 0
y[5,1,1] 0
y[6,1,1] 0
y[7,1,1] 1
y[8,1,1] 1
y[2,1,2] 1
y[3,1,2] 0
y[4,1,2] 1
y[5,1,2] 1
y[6,1,2] 1
y[7,1,2] 0
y[8,1,2] 0
y[9,1,2] 1
y[10,1,2] 0
y[11,1,2] 0
y[12,1,2] 0
y[13,1,2] 0
y[10,1,3] 1
y[11,1,3] 1
y[12,1,3] 1
y[13,1,3] 1
y[14,1,3] 1
y[15,1,4] 1
y[0,2,0] 1
y[1,2,1] 1
y[2,2,1] 0
y[3,2,1] 1
y[4,2,1] 0
y[5,2,1] 0
y[6,2,1] 0
y[7,2,1] 1
y[8,2,1] 1
y[2,2,2] 1
y[3,2,2] 0
y[4,2,2] 1
y[5,2,2] 1
y[6,2,2] 1
y[7,2,2] 0
y[8,2,2] 0
y[9,2,2] 1
y[10,2,2] 0
y[11,2,2] 0
y[12,2,2] 1
y[13,2,2] 0
y[10,2,3] 1
y[11,2,3] 1
y[12,2,3] 0
y[13,2,3] 1
y[14,2,3] 1
y[15,2,4] 1
y[0,3,0] 1
y[1,3,1] 1
y[2,3,1] 0
y[3,3,1] 1
y[4,3,1] 0
y[5,3,1] 0
y[6,3,1] 0
y[7,3,1] 1
y[8,3,1] 0
y[2,3,2] 1
y[3,3,2] 0
y[4,3,2] 1
y[5,3,2] 1
y[6,3,2] 1
y[7,3,2] 0
y[8,3,2] 1
y[9,3,2] 1
y[10,3,2] 0
y[11,3,2] 0
y[12,3,2] 0
y[13,3,2] 0
y[10,3,3] 1
y[11,3,3] 1
y[12,3,3] 1
y[13,3,3] 1
y[14,3,3] 1
y[15,3,4] 1
y[0,4,0] 1
y[1,4,1] 1
y[2,4,1] 0
y[3,4,1] 1
y[4,4,1] 0
y[5,4,1] 0
y[6,4,1] 0
y[7,4,1] 0
y[8,4,1] 1
y[2,4,2] 1
y[3,4,2] 0
y[4,4,2] 1
y[5,4,2] 1
y[6,4,2] 1
y[7,4,2] 1
y[8,4,2] 0
y[9,4,2] 1
y[10,4,2] 0
y[11,4,2] 0
y[12,4,2] 0
y[13,4,2] 1
y[10,4,3] 1
y[11,4,3] 1
y[12,4,3] 1
y[13,4,3] 0
y[14,4,3] 1
y[15,4,4] 1
y[0,5,0] 1
y[1,5,1] 1
y[2,5,1] 0
y[3,5,1] 0
y[4,5,1] 0
y[5,5,1] 0
y[6,5,1] 0
y[7,5,1] 1
y[8,5,1] 1
y[2,5,2] 1
y[3,5,2] 1
y[4,5,2] 1
y[5,5,2] 1
y[6,5,2] 1
y[7,5,2] 0
y[8,5,2] 0
y[9,5,2] 1
y[10,5,2] 0
y[11,5,2] 0
y[12,5,2] 0
y[13,5,2] 0
y[10,5,3] 1
y[11,5,3] 1
y[12,5,3] 1
y[13,5,3] 1
y[14,5,3] 1
y[15,5,4] 1
y[0,6,0] 1
y[1,6,1] 1
y[2,6,1] 0
y[3,6,1] 1
y[4,6,1] 0
y[5,6,1] 0
y[6,6,1] 0
y[7,6,1] 1
y[8,6,1] 1
y[2,6,2] 1
y[3,6,2] 0
y[4,6,2] 1
y[5,6,2] 1
y[6,6,2] 1
y[7,6,2] 0
y[8,6,2] 0
y[9,6,2] 1
y[10,6,2] 0
y[11,6,2] 0
y[12,6,2] 0
y[13,6,2] 0
y[10,6,3] 1
y[11,6,3] 1
y[12,6,3] 1
y[13,6,3] 1
y[14,6,3] 1
y[15,6,4] 1
y[0,7,0] 1
y[1,7,1] 1
y[2,7,1] 0
y[3,7,1] 1
y[4,7,1] 0
y[5,7,1] 0
y[6,7,1] 0
y[7,7,1] 0
y[8,7,1] 1
y[2,7,2] 1
y[3,7,2] 0
y[4,7,2] 1
y[5,7,2] 1
y[6,7,2] 1
y[7,7,2] 1
y[8,7,2] 0
y[9,7,2] 1
y[10,7,2] 0
y[11,7,2] 0
y[12,7,2] 0
y[13,7,2] 0
y[10,7,3] 1
y[11,7,3] 1
y[12,7,3] 1
y[13,7,3] 1
y[14,7,3] 1
y[15,7,4] 1
y[0,8,0] 1
y[1,8,1] 1
y[2,8,1] 0
y[3,8,1] 1
y[4,8,1] 0
y[5,8,1] 0
y[6,8,1] 0
y[7,8,1] 1
y[8,8,1] 0
y[2,8,2] 1
y[3,8,2] 0
y[4,8,2] 1
y[5,8,2] 1
y[6,8,2] 1
y[7,8,2] 0
y[8,8,2] 1
y[9,8,2] 1
y[10,8,2] 0
y[11,8,2] 0
y[12,8,2] 0
y[13,8,2] 0
y[10,8,3] 1
y[11,8,3] 1
y[12,8,3] 1
y[13,8,3] 1
y[14,8,3] 1
y[15,8,4] 1
y[0,9,0] 1
y[1,9,1] 1
y[2,9,1] 1
y[3,9,1] 1
y[4,9,1] 0
y[5,9,1] 0
y[6,9,1] 0
y[7,9,1] 0
y[8,9,1] 0
y[2,9,2] 0
y[3,9,2] 0
y[4,9,2] 1
y[5,9,2] 1
y[6,9,2] 1
y[7,9,2] 1
y[8,9,2] 1
y[9,9,2] 1
y[10,9,2] 0
y[11,9,2] 0
y[12,9,2] 0
y[13,9,2] 0
y[10,9,3] 1
y[11,9,3] 1
y[12,9,3] 1
y[13,9,3] 1
y[14,9,3] 1
y[15,9,4] 1
y[0,10,0] 1
y[1,10,1] 1
y[2,10,1] 0
y[3,10,1] 1
y[4,10,1] 0
y[5,10,1] 0
y[6,10,1] 0
y[7,10,1] 1
y[8,10,1] 1
y[2,10,2] 1
y[3,10,2] 0
y[4,10,2] 1
y[5,10,2] 1
y[6,10,2] 1
y[7,10,2] 0
y[8,10,2] 0
y[9,10,2] 1
y[10,10,2] 0
y[11,10,2] 0
y[12,10,2] 1
y[13,10,2] 0
y[10,10,3] 1
y[11,10,3] 1
y[12,10,3] 0
y[13,10,3] 1
y[14,10,3] 1
y[15,10,4] 1
y[0,11,0] 1
y[1,11,1] 1
y[2,11,1] 0
y[3,11,1] 1
y[4,11,1] 0
y[5,11,1] 0
y[6,11,1] 0
y[7,11,1] 1
y[8,11,1] 1
y[2,11,2] 1
y[3,11,2] 0
y[4,11,2] 1
y[5,11,2] 1
y[6,11,2] 1
y[7,11,2] 0
y[8,11,2] 0
y[9,11,2] 1
y[10,11,2] 0
y[11,11,2] 0
y[12,11,2] 0
y[13,11,2] 0
y[10,11,3] 1
y[11,11,3] 1
y[12,11,3] 1
y[13,11,3] 1
y[14,11,3] 1
y[15,11,4] 1
y[0,12,0] 1
y[1,12,1] 1
y[2,12,1] 0
y[3,12,1] 1
y[4,12,1] 1
y[5,12,1] 0
y[6,12,1] 0
y[7,12,1] 0
y[8,12,1] 1
y[2,12,2] 1
y[3,12,2] 0
y[4,12,2] 0
y[5,12,2] 1
y[6,12,2] 1
y[7,12,2] 1
y[8,12,2] 0
y[9,12,2] 1
y[10,12,2] 0
y[11,12,2] 0
y[12,12,2] 0
y[13,12,2] 0
y[10,12,3] 1
y[11,12,3] 1
y[12,12,3] 1
y[13,12,3] 1
y[14,12,3] 1
y[15,12,4] 1
y[0,13,0] 1
y[1,13,1] 1
y[2,13,1] 0
y[3,13,1] 1
y[4,13,1] 0
y[5,13,1] 0
y[6,13,1] 0
y[7,13,1] 1
y[8,13,1] 1
y[2,13,2] 1
y[3,13,2] 0
y[4,13,2] 1
y[5,13,2] 1
y[6,13,2] 1
y[7,13,2] 0
y[8,13,2] 0
y[9,13,2] 1
y[10,13,2] 0
y[11,13,2] 0
y[12,13,2] 0
y[13,13,2] 1
y[10,13,3] 1
y[11,13,3] 1
y[12,13,3] 1
y[13,13,3] 0
y[14,13,3] 1
y[15,13,4] 1
y[0,14,0] 1
y[1,14,1] 1
y[2,14,1] 0
y[3,14,1] 1
y[4,14,1] 0
y[5,14,1] 0
y[6,14,1] 0
y[7,14,1] 0
y[8,14,1] 1
y[2,14,2] 1
y[3,14,2] 0
y[4,14,2] 1
y[5,14,2] 1
y[6,14,2] 1
y[7,14,2] 1
y[8,14,2] 0
y[9,14,2] 1
y[10,14,2] 0
y[11,14,2] 0
y[12,14,2] 0
y[13,14,2] 0
y[10,14,3] 1
y[11,14,3] 1
y[12,14,3] 1
y[13,14,3] 1
y[14,14,3] 1
y[15,14,4] 1
s[0,0] 0
s[0,1] 2.4999999999998295e+01
s[0,2] 6.3999999999998295e+01
s[0,3] 1.1099999999999716e+02
s[0,4] 156
s[1,0] 25
s[1,1] 6.3999999999998295e+01
s[1,2] 111
s[1,3] 156
s[1,4] 192
s[2,0] 64
s[2,1] 111
s[2,2] 156
s[2,3] 194
s[2,4] 2.3800000000000233e+02
s[3,0] 111
s[3,1] 159
s[3,2] 194
s[3,3] 2.3800000000000233e+02
s[3,4] 2.8100000000000233e+02
s[4,0] 159
s[4,1] 194
s[4,2] 238
s[4,3] 2.8299999999999761e+02
s[4,4] 3.2799999999999613e+02
s[5,0] 194
s[5,1] 2.3799999999999761e+02
s[5,2] 2.8299999999999727e+02
s[5,3] 3.2799999999999460e+02
s[5,4] 371
s[6,0] 238
s[6,1] 286
s[6,2] 3.2799999999999170e+02
s[6,3] 371
s[6,4] 4.1699999999999528e+02
s[7,0] 286
s[7,1] 3.2799999999998835e+02
s[7,2] 3.7399999999998397e+02
s[7,3] 419
s[7,4] 457
s[8,0] 328
s[8,1] 373.999999999985
s[8,2] 4.1899999999999466e+02
s[8,3] 4.5699999999998863e+02
s[8,4] 506.999999999985
s[9,0] 374
s[9,1] 4.2099999999998386e+02
s[9,2] 4.5699999999998875e+02
s[9,3] 506.999999999985
s[9,4] 5.4499999999997726e+02
s[10,0] 421
s[10,1] 4.5699999999998386e+02
s[10,2] 506.999999999985
s[10,3] 545
s[10,4] 584
s[11,0] 457
s[11,1] 506.999999999985
s[11,2] 546
s[11,3] 584
s[11,4] 621
s[12,0] 507
s[12,1] 546
s[12,2] 585
s[12,3] 621
s[12,4] 662
s[13,0] 546
s[13,1] 5.8499999999999977e+02
s[13,2] 6.2099999999999977e+02
s[13,3] 6.6999999999999977e+02
s[13,4] 7.1499999999999977e+02
s[14,0] 585
s[14,1] 6.2199999999999977e+02
s[14,2] 6.6999999999999977e+02
s[14,3] 7.1499999999999977e+02
s[14,4] 7.4099999999999977e+02
P[0,0] 2.4999999999998295e+01
P[0,1] 39
P[0,2] 4.6999999999998863e+01
P[0,3] 4.5000000000002842e+01
P[0,4] 36
P[1,0] 28
P[1,1] 47
P[1,2] 44
P[1,3] 36
P[1,4] 4.6000000000002331e+01
P[2,0] 26
P[2,1] 45
P[2,2] 38
P[2,3] 42
P[2,4] 43
P[3,0] 26
P[3,1] 35
P[3,2] 44
P[3,3] 43
P[3,4] 4.6999999999993804e+01
P[4,0] 26
P[4,1] 44
P[4,2] 45
P[4,3] 45
P[4,4] 4.3000000000003865e+01
P[5,0] 28
P[5,1] 44
P[5,2] 45
P[5,3] 43
P[5,4] 4.5999999999995282e+01
P[6,0] 28
P[6,1] 42
P[6,2] 43
P[6,3] 46
P[6,4] 4.0000000000004718e+01
P[7,0] 25
P[7,1] 46
P[7,2] 45
P[7,3] 38
P[7,4] 4.9999999999984993e+01
P[8,0] 25
P[8,1] 45
P[8,2] 38
P[8,3] 50
P[8,4] 3.7999999999992269e+01
P[9,0] 26
P[9,1] 36
P[9,2] 49
P[9,3] 38
P[9,4] 3.9000000000022737e+01
P[10,0] 27
P[10,1] 50
P[10,2] 36
P[10,3] 39
P[10,4] 37
P[11,0] 28
P[11,1] 39
P[11,2] 37
P[11,3] 37
P[11,4] 41
P[12,0] 28
P[12,1] 39
P[12,2] 34
P[12,3] 40
P[12,4] 5.2999999999999773e+01
P[13,0] 25
P[13,1] 36
P[13,2] 49
P[13,3] 40
P[13,4] 26
P[14,0] 26
P[14,1] 48
P[14,2] 45
P[14,3] 26
P[14,4] 10
